(set-logic QF_SLIA)
(declare-fun var0 () String)
(assert (not (str.in_re var0 (re.++ ((_ re.loop 10 350) (re.++ (re.union (str.to_re "G9#") (re.union (str.to_re "?") (re.union (str.to_re "+") (str.to_re "\u0022f")))) (re.++ (re.union (str.to_re "j%") (re.union (str.to_re "?fp") (re.union (str.to_re "XpH") (str.to_re "t&")))) (re.++ (re.union (str.to_re "Bg") (re.union (str.to_re "lw<") (re.union (str.to_re "]") (str.to_re "-a")))) (re.union (str.to_re "5)L") (re.union (str.to_re "k7") (re.union (str.to_re "(K*") (str.to_re "S")))))))) (re.++ ((_ re.loop 18 211) (re.++ (re.union (str.to_re "8ON") (re.union (str.to_re "q") (re.union (str.to_re "K") (str.to_re "US")))) (re.++ (re.union (str.to_re "sIV") (re.union (str.to_re "-:S") (re.union (str.to_re ":") (str.to_re "P")))) (re.++ (re.union (str.to_re "c>O") (re.union (str.to_re ";:a") (re.union (str.to_re "/r") (str.to_re "dHT")))) (re.union (str.to_re "p") (re.union (str.to_re "E") (re.union (str.to_re ",|") (str.to_re "JX")))))))) (re.++ ((_ re.loop 0 277) (re.++ (re.union (str.to_re "i") (re.union (str.to_re "W3k") (re.union (str.to_re "y") (str.to_re "7$")))) (re.++ (re.union (str.to_re ",") (re.union (str.to_re "B|O") (re.union (str.to_re "Es*") (str.to_re "VQ")))) (re.++ (re.union (str.to_re "B") (re.union (str.to_re "@DC") (re.union (str.to_re "XH") (str.to_re "[")))) (re.union (str.to_re "D]7") (re.union (str.to_re "4") (re.union (str.to_re "}\\") (str.to_re "9V-")))))))) ((_ re.loop 5 97) (re.++ (re.union (str.to_re "x\u0022") (re.union (str.to_re "TKq") (re.union (str.to_re "s*") (str.to_re "wR")))) (re.++ (re.union (str.to_re "pSc") (re.union (str.to_re "b") (re.union (str.to_re "Lh~") (str.to_re "Oc_")))) (re.++ (re.union (str.to_re "K") (re.union (str.to_re "]MJ") (re.union (str.to_re "Ni") (str.to_re "H$")))) (re.union (str.to_re "L'C") (re.union (str.to_re "U") (re.union (str.to_re "K1") (str.to_re "gZ"))))))))))))))
(assert (not (str.in_re var0 (re.++ ((_ re.loop 0 300) (re.++ (re.union (str.to_re "Z") (re.union (str.to_re "8") (re.union (str.to_re "^3G") (str.to_re "fw")))) (re.++ (re.union (str.to_re "#") (re.union (str.to_re "hOi") (re.union (str.to_re "u") (str.to_re "m!/")))) (re.++ (re.union (str.to_re "Uv") (re.union (str.to_re "U") (re.union (str.to_re "|ql") (str.to_re "=(W")))) (re.union (str.to_re ".?5") (re.union (str.to_re "7a#") (re.union (str.to_re ";G") (str.to_re "$)")))))))) (re.++ ((_ re.loop 5 140) (re.++ (re.union (str.to_re "@") (re.union (str.to_re "o") (re.union (str.to_re "X") (str.to_re "+")))) (re.++ (re.union (str.to_re "&G") (re.union (str.to_re "TM") (re.union (str.to_re "tY") (str.to_re "Kg")))) (re.++ (re.union (str.to_re "IS") (re.union (str.to_re "pn") (re.union (str.to_re "CD`") (str.to_re "9")))) (re.union (str.to_re "{f") (re.union (str.to_re "+y") (re.union (str.to_re "9") (str.to_re "q")))))))) (re.++ ((_ re.loop 15 775) (re.++ (re.union (str.to_re "-") (re.union (str.to_re "nS") (re.union (str.to_re "Ju") (str.to_re "@E")))) (re.++ (re.union (str.to_re "J") (re.union (str.to_re "1k") (re.union (str.to_re "S") (str.to_re "s;")))) (re.++ (re.union (str.to_re "yQ") (re.union (str.to_re "-M") (re.union (str.to_re "C") (str.to_re "R{j")))) (re.union (str.to_re "X5e") (re.union (str.to_re "T+") (re.union (str.to_re "V") (str.to_re "$\\4")))))))) ((_ re.loop 14 775) (re.++ (re.union (str.to_re "S") (re.union (str.to_re "K") (re.union (str.to_re "pR") (str.to_re "\u00222")))) (re.++ (re.union (str.to_re "0a") (re.union (str.to_re "*($") (re.union (str.to_re "y") (str.to_re "^eb")))) (re.++ (re.union (str.to_re "}") (re.union (str.to_re "v[") (re.union (str.to_re "y\u0022") (str.to_re "6")))) (re.union (str.to_re "DA") (re.union (str.to_re "^(") (re.union (str.to_re "+Ed") (str.to_re "e~"))))))))))))))
(assert (not (str.in_re var0 (re.++ (re.* re.allchar) (re.++ (re.union (str.to_re "<") (re.union (str.to_re ">") (re.union (str.to_re "'") (re.union (str.to_re "\u0022") (str.to_re "&"))))) (re.* re.allchar))))))
(assert (<= 50 (str.len var0)))
(check-sat)
(get-model)
